
******************************************************************************
This program contains Ipopt, a library for large-scale nonlinear optimization.
 Ipopt is released as open source code under the Eclipse Public License (EPL).
         For more information visit http://projects.coin-or.org/Ipopt

This version of Ipopt was compiled from source code available at
    https://github.com/IDAES/Ipopt as part of the Institute for the Design of
    Advanced Energy Systems Process Systems Engineering Framework (IDAES PSE
    Framework) Copyright (c) 2018-2019. See https://github.com/IDAES/idaes-pse.

This version of Ipopt was compiled using HSL, a collection of Fortran codes
    for large-scale scientific computation.  All technical papers, sales and
    publicity material resulting from use of the HSL codes within IPOPT must
    contain the following acknowledgement:
        HSL, a collection of Fortran codes for large-scale scientific
        computation. See http://www.hsl.rl.ac.uk.
******************************************************************************

This is Ipopt version 3.13.2, running with linear solver ma27.

Number of nonzeros in equality constraint Jacobian...:     1210
Number of nonzeros in inequality constraint Jacobian.:        0
Number of nonzeros in Lagrangian Hessian.............:     1376

Total number of variables............................:      480
                     variables with only lower bounds:      128
                variables with lower and upper bounds:      288
                     variables with only upper bounds:        0
Total number of equality constraints.................:      477
Total number of inequality constraints...............:        0
        inequality constraints with only lower bounds:        0
   inequality constraints with lower and upper bounds:        0
        inequality constraints with only upper bounds:        0

iter    objective    inf_pr   inf_du lg(mu)  ||d||  lg(rg) alpha_du alpha_pr  ls
   0  0.0000000e+00 2.13e-01 2.93e-14  -1.0 0.00e+00    -  0.00e+00 0.00e+00   0
   1  5.0829226e-02 1.39e+00 5.50e+03  -1.0 3.97e+04    -  5.38e-01 4.95e-01h  2
   2  1.7202054e-01 1.94e-01 2.42e+03  -1.0 1.63e+04    -  8.75e-01 9.90e-01h  1
   3  1.7147627e-01 6.88e-03 1.19e+02  -1.0 1.65e+03    -  9.88e-01 9.90e-01h  1
   4  1.7158984e-01 8.49e-05 5.30e+01  -1.0 2.96e+02    -  9.90e-01 9.90e-01h  1
   5  1.8530026e-01 2.19e-06 1.30e+02  -1.0 5.14e+03    -  9.90e-01 9.90e-01H  1
   6  1.7647031e-01 3.13e-05 1.44e+06  -3.8 4.00e+03    -  9.83e-01 5.00e-01f  2
   7  1.6955585e-01 9.01e-07 5.65e+02  -3.8 4.58e+03    -  1.00e+00 1.00e+00H  1
   8  1.6955267e-01 4.04e-08 5.96e+06  -3.8 1.02e+02    -  1.00e+00 1.00e+00h  1
In iteration 8, 32 Slacks too small, adjusting variable bounds
   9  1.6955267e-01 6.13e-12 3.96e+10  -3.8 9.02e-02    -  1.00e+00 1.00e+00h  1
iter    objective    inf_pr   inf_du lg(mu)  ||d||  lg(rg) alpha_du alpha_pr  ls
  10  1.6955267e-01 1.37e-12 1.50e-09  -3.8 1.36e-05    -  1.00e+00 1.00e+00h  1
  11  1.6955254e-01 2.08e-13 5.18e+06  -9.0 2.20e+01    -  1.00e+00 1.00e+00H  1
  12  1.6955254e-01 3.97e-12 4.95e-10  -9.0 4.56e-02    -  1.00e+00 1.00e+00h  1

Number of Iterations....: 12

                                   (scaled)                 (unscaled)
Objective...............:   1.6955253854883889e-01    1.6955253854883889e-01
Dual infeasibility......:   4.9476511776447296e-10    4.9476511776447296e-10
Constraint violation....:   3.9741543389482104e-12    3.9741543389482104e-12
Complementarity.........:   9.0910237823239046e-10    9.0910237823239046e-10
Overall NLP error.......:   8.3513723322176391e-12    9.0910237823239046e-10


Number of objective function evaluations             = 23
Number of objective gradient evaluations             = 13
Number of equality constraint evaluations            = 23
Number of inequality constraint evaluations          = 0
Number of equality constraint Jacobian evaluations   = 13
Number of inequality constraint Jacobian evaluations = 0
Number of Lagrangian Hessian evaluations             = 12
Total CPU secs in IPOPT (w/o function evaluations)   =      0.026
Total CPU secs in NLP function evaluations           =      0.249

EXIT: Optimal Solution Found.
